Set parameter Username
Academic license - for non-commercial use only - expires 2024-02-22
Warning: Gurobi version mismatch between Python 9.5.0 and C library 9.5.2
Set parameter TimeLimit to value 3600
Set parameter MIPGap to value 1e-06
Set parameter Threads to value 1
Gurobi Optimizer version 9.5.2 build v9.5.2rc0 (linux64)
Thread count: 4 physical cores, 4 logical processors, using up to 1 threads
Optimize a model with 260 rows, 312 columns and 674 nonzeros
Model fingerprint: 0x763230a6
Variable types: 208 continuous, 104 integer (104 binary)
Coefficient statistics:
  Matrix range     [1e+00, 2e+02]
  Objective range  [2e-01, 2e+03]
  Bounds range     [1e+00, 1e+00]
  RHS range        [2e+01, 2e+02]
Found heuristic solution: objective 54834.600000
Presolve removed 5 rows and 5 columns
Presolve time: 0.00s
Presolved: 255 rows, 307 columns, 666 nonzeros
Variable types: 204 continuous, 103 integer (103 binary)

Root relaxation: objective 1.446081e+04, 187 iterations, 0.00 seconds (0.00 work units)

    Nodes    |    Current Node    |     Objective Bounds      |     Work
 Expl Unexpl |  Obj  Depth IntInf | Incumbent    BestBd   Gap | It/Node Time

     0     0 14460.8102    0   50 54834.6000 14460.8102  73.6%     -    0s
H    0     0                    18864.200000 14460.8102  23.3%     -    0s
     0     0 16480.6288    0   42 18864.2000 16480.6288  12.6%     -    0s
H    0     0                    18424.200000 16480.6288  10.5%     -    0s
H    0     0                    18155.200000 16480.6288  9.22%     -    0s
     0     0 16486.1681    0   44 18155.2000 16486.1681  9.19%     -    0s
     0     0 16889.7043    0   26 18155.2000 16889.7043  6.97%     -    0s
     0     0 16952.8927    0   28 18155.2000 16952.8927  6.62%     -    0s
     0     0 16964.9352    0   30 18155.2000 16964.9352  6.56%     -    0s
     0     0 16965.0240    0   30 18155.2000 16965.0240  6.56%     -    0s
     0     0 17015.1264    0   38 18155.2000 17015.1264  6.28%     -    0s
H    0     0                    17386.800000 17015.1264  2.14%     -    0s
H    0     0                    17137.200000 17015.1264  0.71%     -    0s
     0     0 17019.0680    0   24 17137.2000 17019.0680  0.69%     -    0s
     0     0 17019.2729    0   28 17137.2000 17019.2729  0.69%     -    0s
     0     0 17038.9478    0   29 17137.2000 17038.9478  0.57%     -    0s
     0     0 17038.9478    0   49 17137.2000 17038.9478  0.57%     -    0s
     0     0 17038.9478    0   38 17137.2000 17038.9478  0.57%     -    0s
     0     0 17038.9478    0   28 17137.2000 17038.9478  0.57%     -    0s
     0     0 17038.9478    0   15 17137.2000 17038.9478  0.57%     -    0s
     0     0 17041.9466    0   24 17137.2000 17041.9466  0.56%     -    0s
     0     0 17041.9531    0   24 17137.2000 17041.9531  0.56%     -    0s
     0     0 17058.5069    0   12 17137.2000 17058.5069  0.46%     -    0s
H    0     0                    17081.200000 17058.5069  0.13%     -    0s
     0     0 17059.0077    0   12 17081.2000 17059.0077  0.13%     -    0s
     0     0 17061.3649    0   19 17081.2000 17061.3649  0.12%     -    0s
     0     0 17064.2385    0    2 17081.2000 17064.2385  0.10%     -    0s
     0     0 17064.2385    0    2 17081.2000 17064.2385  0.10%     -    0s
     0     0 17064.2385    0    5 17081.2000 17064.2385  0.10%     -    0s
     0     0 17064.2385    0    6 17081.2000 17064.2385  0.10%     -    0s
     0     0 17064.2385    0    2 17081.2000 17064.2385  0.10%     -    0s
     0     0 17065.0538    0    5 17081.2000 17065.0538  0.09%     -    0s
     0     0 17065.0942    0    5 17081.2000 17065.0942  0.09%     -    0s
     0     0 17067.7311    0    6 17081.2000 17067.7311  0.08%     -    0s
     0     0 17068.9533    0    6 17081.2000 17068.9533  0.07%     -    0s
     0     0 17076.9988    0    6 17081.2000 17076.9988  0.02%     -    0s
     0     0 17079.9267    0    6 17081.2000 17079.9267  0.01%     -    0s

Cutting planes:
  Cover: 1
  Implied bound: 1
  MIR: 5
  Flow cover: 5

Explored 1 nodes (677 simplex iterations) in 0.07 seconds (0.03 work units)
Thread count was 1 (of 4 available processors)

Solution count 8: 17081.2 17093.2 17137.2 ... 54834.6

Optimal solution found (tolerance 1.00e-06)
Best objective 1.708120000000e+04, best bound 1.708120000000e+04, gap 0.0000%
Obj: 17081.2
